Minimize
	value: tt

Subject to
tt + 1000 s_1_1 > 0.0
tt - t_1_1 - 1000.000000 s_1_1  + 0.000000 s_1_8  + 0.000000 s_1_7  > -999.347129
tt + 1000 s_2_1 > 0.0
tt - t_2_1 - 1000.000000 s_2_1  + 0.000000 s_2_8  + 0.000000 s_2_7  > -999.060244
tt + 1000 s_1_2 > 0.0
tt - t_1_2 - 1000.000000 s_1_2  + 0.000000 s_1_7  > -999.355764
tt + 1000 s_2_2 > 0.0
tt - t_2_2 - 1000.000000 s_2_2  + 0.000000 s_2_7  > -999.107056
tt + 1000 s_1_3 > 0.0
tt - t_1_3 - 1000.000000 s_1_3  + 0.000000 s_1_8  + 0.000000 s_1_7  > -999.950722
tt + 1000 s_2_3 > 0.0
tt - t_2_3 - 1000.000000 s_2_3  + 0.000000 s_2_8  + 0.000000 s_2_7  > -999.899103
tt + 1000 s_1_4 > 0.0
tt - t_1_4 - 1000.000000 s_1_4  + 0.000000 s_1_7  > -999.927600
tt + 1000 s_2_4 > 0.0
tt - t_2_4 - 1000.000000 s_2_4  + 0.000000 s_2_7  > -999.863755
tt + 1000 s_1_5 > 0.0
tt - t_1_5 - 1000.000000 s_1_5  + 0.000000 s_1_8  > -999.705500
tt + 1000 s_2_5 > 0.0
tt - t_2_5 - 1000.000000 s_2_5  + 0.000000 s_2_8  > -999.600837
tt + 1000 s_1_6 > 0.0
tt - t_1_6 - 1000.000000 s_1_6  + 0.000000 s_1_3  + 0.000000 s_1_1  + 0.000000 s_1_2  + 0.000000 s_1_5  + 0.000000 s_1_7  + 0.000000 s_1_4  > -999.977700
tt + 1000 s_2_6 > 0.0
tt - t_2_6 - 1000.000000 s_2_6  + 0.000000 s_2_3  + 0.000000 s_2_1  + 0.000000 s_2_2  + 0.000000 s_2_5  + 0.000000 s_2_7  + 0.000000 s_2_4  > -999.951421
tt + 1000 s_1_7 > 0.0
tt - t_1_7 - 1000.000000 s_1_7  > -999.485900
tt + 1000 s_2_7 > 0.0
tt - t_2_7 - 1000.000000 s_2_7  > -999.301789
tt + 1000 s_1_8 > 0.0
tt - t_1_8 - 1000.000000 s_1_8  > -999.221589
tt + 1000 s_2_8 > 0.0
tt - t_2_8 - 1000.000000 s_2_8  > -998.985100
s_1_1 + s_2_1 = 1
s_1_2 + s_2_2 = 1
s_1_3 + s_2_3 = 1
s_1_4 + s_2_4 = 1
s_1_5 + s_2_5 = 1
s_1_6 + s_2_6 = 1
s_1_7 + s_2_7 = 1
s_1_8 + s_2_8 = 1
s_1_1 + s_1_2 + 1000 r_1_1_2 >= 2
- s_1_1 - s_1_2 - 1000 r_1_1_2 >= -1001
t_1_1 - t_1_2 - 1000.000000 u_1_1_2 - 0.000000 s_1_2  + 0.000000 s_1_7  + 2000.000000 r_1_1_2 > -999.355764
s_2_1 + s_2_2 + 1000 r_2_1_2 >= 2
- s_2_1 - s_2_2 - 1000 r_2_1_2 >= -1001
t_2_1 - t_2_2 - 1000.000000 u_2_1_2 - 0.000000 s_2_2  + 0.000000 s_2_7  + 2000.000000 r_2_1_2 > -999.107056
s_1_1 + s_1_3 + 1000 r_1_1_3 >= 2
- s_1_1 - s_1_3 - 1000 r_1_1_3 >= -1001
t_1_1 - t_1_3 - 1000.000000 u_1_1_3 - 0.000000 s_1_3  + 0.000000 s_1_8  + 0.000000 s_1_7  + 2000.000000 r_1_1_3 > -999.950722
s_2_1 + s_2_3 + 1000 r_2_1_3 >= 2
- s_2_1 - s_2_3 - 1000 r_2_1_3 >= -1001
t_2_1 - t_2_3 - 1000.000000 u_2_1_3 - 0.000000 s_2_3  + 0.000000 s_2_8  + 0.000000 s_2_7  + 2000.000000 r_2_1_3 > -999.899103
s_1_1 + s_1_4 + 1000 r_1_1_4 >= 2
- s_1_1 - s_1_4 - 1000 r_1_1_4 >= -1001
t_1_1 - t_1_4 - 1000.000000 u_1_1_4 - 0.000000 s_1_4  + 0.000000 s_1_7  + 2000.000000 r_1_1_4 > -999.927600
s_2_1 + s_2_4 + 1000 r_2_1_4 >= 2
- s_2_1 - s_2_4 - 1000 r_2_1_4 >= -1001
t_2_1 - t_2_4 - 1000.000000 u_2_1_4 - 0.000000 s_2_4  + 0.000000 s_2_7  + 2000.000000 r_2_1_4 > -999.863755
s_1_1 + s_1_5 + 1000 r_1_1_5 >= 2
- s_1_1 - s_1_5 - 1000 r_1_1_5 >= -1001
t_1_1 - t_1_5 - 1000.000000 u_1_1_5 - 0.000000 s_1_5  + 0.000000 s_1_8  + 2000.000000 r_1_1_5 > -999.705500
s_2_1 + s_2_5 + 1000 r_2_1_5 >= 2
- s_2_1 - s_2_5 - 1000 r_2_1_5 >= -1001
t_2_1 - t_2_5 - 1000.000000 u_2_1_5 - 0.000000 s_2_5  + 0.000000 s_2_8  + 2000.000000 r_2_1_5 > -999.600837
t_1_6 - t_1_1 - 1000.000000 s_1_1  + 0.000000 s_1_8  + 0.000000 s_1_7  > -999.347129
t_1_6 - t_2_1 - 1000.000000 s_2_1  + 0.000000 s_2_8  + 0.000000 s_2_7  > -999.060244
t_2_6 - t_1_1 - 1000.000000 s_1_1  + 0.000000 s_1_8  + 0.000000 s_1_7  > -999.347129
t_2_6 - t_2_1 - 1000.000000 s_2_1  + 0.000000 s_2_8  + 0.000000 s_2_7  > -999.060244
t_1_1 - t_1_7 - 1000.000000 s_1_7  > -999.485900
t_1_1 - t_2_7 - 1000.000000 s_2_7  > -999.301789
t_2_1 - t_1_7 - 1000.000000 s_1_7  > -999.485900
t_2_1 - t_2_7 - 1000.000000 s_2_7  > -999.301789
t_1_1 - t_1_8 - 1000.000000 s_1_8  > -999.221589
t_1_1 - t_2_8 - 1000.000000 s_2_8  > -998.985100
t_2_1 - t_1_8 - 1000.000000 s_1_8  > -999.221589
t_2_1 - t_2_8 - 1000.000000 s_2_8  > -998.985100
s_1_2 + s_1_1 + 1000 r_1_1_2 >= 2
- s_1_2 - s_1_1 - 1000 r_1_1_2 >= -1001
t_1_2 - t_1_1 + 1000.000000 u_1_1_2 - 0.000000 s_1_1  + 0.000000 s_1_8  + 0.000000 s_1_7  + 2000.000000 r_1_1_2 > 0.652871
s_2_2 + s_2_1 + 1000 r_2_1_2 >= 2
- s_2_2 - s_2_1 - 1000 r_2_1_2 >= -1001
t_2_2 - t_2_1 + 1000.000000 u_2_1_2 - 0.000000 s_2_1  + 0.000000 s_2_8  + 0.000000 s_2_7  + 2000.000000 r_2_1_2 > 0.939756
s_1_2 + s_1_3 + 1000 r_1_2_3 >= 2
- s_1_2 - s_1_3 - 1000 r_1_2_3 >= -1001
t_1_2 - t_1_3 - 1000.000000 u_1_2_3 - 0.000000 s_1_3  + 0.000000 s_1_8  + 0.000000 s_1_7  + 2000.000000 r_1_2_3 > -999.950722
s_2_2 + s_2_3 + 1000 r_2_2_3 >= 2
- s_2_2 - s_2_3 - 1000 r_2_2_3 >= -1001
t_2_2 - t_2_3 - 1000.000000 u_2_2_3 - 0.000000 s_2_3  + 0.000000 s_2_8  + 0.000000 s_2_7  + 2000.000000 r_2_2_3 > -999.899103
s_1_2 + s_1_4 + 1000 r_1_2_4 >= 2
- s_1_2 - s_1_4 - 1000 r_1_2_4 >= -1001
t_1_2 - t_1_4 - 1000.000000 u_1_2_4 - 0.000000 s_1_4  + 0.000000 s_1_7  + 2000.000000 r_1_2_4 > -999.927600
s_2_2 + s_2_4 + 1000 r_2_2_4 >= 2
- s_2_2 - s_2_4 - 1000 r_2_2_4 >= -1001
t_2_2 - t_2_4 - 1000.000000 u_2_2_4 - 0.000000 s_2_4  + 0.000000 s_2_7  + 2000.000000 r_2_2_4 > -999.863755
s_1_2 + s_1_5 + 1000 r_1_2_5 >= 2
- s_1_2 - s_1_5 - 1000 r_1_2_5 >= -1001
t_1_2 - t_1_5 - 1000.000000 u_1_2_5 - 0.000000 s_1_5  + 0.000000 s_1_8  + 2000.000000 r_1_2_5 > -999.705500
s_2_2 + s_2_5 + 1000 r_2_2_5 >= 2
- s_2_2 - s_2_5 - 1000 r_2_2_5 >= -1001
t_2_2 - t_2_5 - 1000.000000 u_2_2_5 - 0.000000 s_2_5  + 0.000000 s_2_8  + 2000.000000 r_2_2_5 > -999.600837
t_1_6 - t_1_2 - 1000.000000 s_1_2  + 0.000000 s_1_7  > -999.355764
t_1_6 - t_2_2 - 1000.000000 s_2_2  + 0.000000 s_2_7  > -999.107056
t_2_6 - t_1_2 - 1000.000000 s_1_2  + 0.000000 s_1_7  > -999.355764
t_2_6 - t_2_2 - 1000.000000 s_2_2  + 0.000000 s_2_7  > -999.107056
t_1_2 - t_1_7 - 1000.000000 s_1_7  > -999.485900
t_1_2 - t_2_7 - 1000.000000 s_2_7  > -999.301789
t_2_2 - t_1_7 - 1000.000000 s_1_7  > -999.485900
t_2_2 - t_2_7 - 1000.000000 s_2_7  > -999.301789
s_1_2 + s_1_8 + 1000 r_1_2_8 >= 2
- s_1_2 - s_1_8 - 1000 r_1_2_8 >= -1001
t_1_2 - t_1_8 - 1000.000000 u_1_2_8 - 0.000000 s_1_8  + 2000.000000 r_1_2_8 > -999.221589
s_2_2 + s_2_8 + 1000 r_2_2_8 >= 2
- s_2_2 - s_2_8 - 1000 r_2_2_8 >= -1001
t_2_2 - t_2_8 - 1000.000000 u_2_2_8 - 0.000000 s_2_8  + 2000.000000 r_2_2_8 > -998.985100
s_1_3 + s_1_1 + 1000 r_1_1_3 >= 2
- s_1_3 - s_1_1 - 1000 r_1_1_3 >= -1001
t_1_3 - t_1_1 + 1000.000000 u_1_1_3 - 0.000000 s_1_1  + 0.000000 s_1_8  + 0.000000 s_1_7  + 2000.000000 r_1_1_3 > 0.652871
s_2_3 + s_2_1 + 1000 r_2_1_3 >= 2
- s_2_3 - s_2_1 - 1000 r_2_1_3 >= -1001
t_2_3 - t_2_1 + 1000.000000 u_2_1_3 - 0.000000 s_2_1  + 0.000000 s_2_8  + 0.000000 s_2_7  + 2000.000000 r_2_1_3 > 0.939756
s_1_3 + s_1_2 + 1000 r_1_2_3 >= 2
- s_1_3 - s_1_2 - 1000 r_1_2_3 >= -1001
t_1_3 - t_1_2 + 1000.000000 u_1_2_3 - 0.000000 s_1_2  + 0.000000 s_1_7  + 2000.000000 r_1_2_3 > 0.644236
s_2_3 + s_2_2 + 1000 r_2_2_3 >= 2
- s_2_3 - s_2_2 - 1000 r_2_2_3 >= -1001
t_2_3 - t_2_2 + 1000.000000 u_2_2_3 - 0.000000 s_2_2  + 0.000000 s_2_7  + 2000.000000 r_2_2_3 > 0.892944
s_1_3 + s_1_4 + 1000 r_1_3_4 >= 2
- s_1_3 - s_1_4 - 1000 r_1_3_4 >= -1001
t_1_3 - t_1_4 - 1000.000000 u_1_3_4 - 0.000000 s_1_4  + 0.000000 s_1_7  + 2000.000000 r_1_3_4 > -999.927600
s_2_3 + s_2_4 + 1000 r_2_3_4 >= 2
- s_2_3 - s_2_4 - 1000 r_2_3_4 >= -1001
t_2_3 - t_2_4 - 1000.000000 u_2_3_4 - 0.000000 s_2_4  + 0.000000 s_2_7  + 2000.000000 r_2_3_4 > -999.863755
s_1_3 + s_1_5 + 1000 r_1_3_5 >= 2
- s_1_3 - s_1_5 - 1000 r_1_3_5 >= -1001
t_1_3 - t_1_5 - 1000.000000 u_1_3_5 - 0.000000 s_1_5  + 0.000000 s_1_8  + 2000.000000 r_1_3_5 > -999.705500
s_2_3 + s_2_5 + 1000 r_2_3_5 >= 2
- s_2_3 - s_2_5 - 1000 r_2_3_5 >= -1001
t_2_3 - t_2_5 - 1000.000000 u_2_3_5 - 0.000000 s_2_5  + 0.000000 s_2_8  + 2000.000000 r_2_3_5 > -999.600837
t_1_6 - t_1_3 - 1000.000000 s_1_3  + 0.000000 s_1_8  + 0.000000 s_1_7  > -999.950722
t_1_6 - t_2_3 - 1000.000000 s_2_3  + 0.000000 s_2_8  + 0.000000 s_2_7  > -999.899103
t_2_6 - t_1_3 - 1000.000000 s_1_3  + 0.000000 s_1_8  + 0.000000 s_1_7  > -999.950722
t_2_6 - t_2_3 - 1000.000000 s_2_3  + 0.000000 s_2_8  + 0.000000 s_2_7  > -999.899103
t_1_3 - t_1_7 - 1000.000000 s_1_7  > -999.485900
t_1_3 - t_2_7 - 1000.000000 s_2_7  > -999.301789
t_2_3 - t_1_7 - 1000.000000 s_1_7  > -999.485900
t_2_3 - t_2_7 - 1000.000000 s_2_7  > -999.301789
t_1_3 - t_1_8 - 1000.000000 s_1_8  > -999.221589
t_1_3 - t_2_8 - 1000.000000 s_2_8  > -998.985100
t_2_3 - t_1_8 - 1000.000000 s_1_8  > -999.221589
t_2_3 - t_2_8 - 1000.000000 s_2_8  > -998.985100
s_1_4 + s_1_1 + 1000 r_1_1_4 >= 2
- s_1_4 - s_1_1 - 1000 r_1_1_4 >= -1001
t_1_4 - t_1_1 + 1000.000000 u_1_1_4 - 0.000000 s_1_1  + 0.000000 s_1_8  + 0.000000 s_1_7  + 2000.000000 r_1_1_4 > 0.652871
s_2_4 + s_2_1 + 1000 r_2_1_4 >= 2
- s_2_4 - s_2_1 - 1000 r_2_1_4 >= -1001
t_2_4 - t_2_1 + 1000.000000 u_2_1_4 - 0.000000 s_2_1  + 0.000000 s_2_8  + 0.000000 s_2_7  + 2000.000000 r_2_1_4 > 0.939756
s_1_4 + s_1_2 + 1000 r_1_2_4 >= 2
- s_1_4 - s_1_2 - 1000 r_1_2_4 >= -1001
t_1_4 - t_1_2 + 1000.000000 u_1_2_4 - 0.000000 s_1_2  + 0.000000 s_1_7  + 2000.000000 r_1_2_4 > 0.644236
s_2_4 + s_2_2 + 1000 r_2_2_4 >= 2
- s_2_4 - s_2_2 - 1000 r_2_2_4 >= -1001
t_2_4 - t_2_2 + 1000.000000 u_2_2_4 - 0.000000 s_2_2  + 0.000000 s_2_7  + 2000.000000 r_2_2_4 > 0.892944
s_1_4 + s_1_3 + 1000 r_1_3_4 >= 2
- s_1_4 - s_1_3 - 1000 r_1_3_4 >= -1001
t_1_4 - t_1_3 + 1000.000000 u_1_3_4 - 0.000000 s_1_3  + 0.000000 s_1_8  + 0.000000 s_1_7  + 2000.000000 r_1_3_4 > 0.049278
s_2_4 + s_2_3 + 1000 r_2_3_4 >= 2
- s_2_4 - s_2_3 - 1000 r_2_3_4 >= -1001
t_2_4 - t_2_3 + 1000.000000 u_2_3_4 - 0.000000 s_2_3  + 0.000000 s_2_8  + 0.000000 s_2_7  + 2000.000000 r_2_3_4 > 0.100897
s_1_4 + s_1_5 + 1000 r_1_4_5 >= 2
- s_1_4 - s_1_5 - 1000 r_1_4_5 >= -1001
t_1_4 - t_1_5 - 1000.000000 u_1_4_5 - 0.000000 s_1_5  + 0.000000 s_1_8  + 2000.000000 r_1_4_5 > -999.705500
s_2_4 + s_2_5 + 1000 r_2_4_5 >= 2
- s_2_4 - s_2_5 - 1000 r_2_4_5 >= -1001
t_2_4 - t_2_5 - 1000.000000 u_2_4_5 - 0.000000 s_2_5  + 0.000000 s_2_8  + 2000.000000 r_2_4_5 > -999.600837
t_1_6 - t_1_4 - 1000.000000 s_1_4  + 0.000000 s_1_7  > -999.927600
t_1_6 - t_2_4 - 1000.000000 s_2_4  + 0.000000 s_2_7  > -999.863755
t_2_6 - t_1_4 - 1000.000000 s_1_4  + 0.000000 s_1_7  > -999.927600
t_2_6 - t_2_4 - 1000.000000 s_2_4  + 0.000000 s_2_7  > -999.863755
t_1_4 - t_1_7 - 1000.000000 s_1_7  > -999.485900
t_1_4 - t_2_7 - 1000.000000 s_2_7  > -999.301789
t_2_4 - t_1_7 - 1000.000000 s_1_7  > -999.485900
t_2_4 - t_2_7 - 1000.000000 s_2_7  > -999.301789
s_1_4 + s_1_8 + 1000 r_1_4_8 >= 2
- s_1_4 - s_1_8 - 1000 r_1_4_8 >= -1001
t_1_4 - t_1_8 - 1000.000000 u_1_4_8 - 0.000000 s_1_8  + 2000.000000 r_1_4_8 > -999.221589
s_2_4 + s_2_8 + 1000 r_2_4_8 >= 2
- s_2_4 - s_2_8 - 1000 r_2_4_8 >= -1001
t_2_4 - t_2_8 - 1000.000000 u_2_4_8 - 0.000000 s_2_8  + 2000.000000 r_2_4_8 > -998.985100
s_1_5 + s_1_1 + 1000 r_1_1_5 >= 2
- s_1_5 - s_1_1 - 1000 r_1_1_5 >= -1001
t_1_5 - t_1_1 + 1000.000000 u_1_1_5 - 0.000000 s_1_1  + 0.000000 s_1_8  + 0.000000 s_1_7  + 2000.000000 r_1_1_5 > 0.652871
s_2_5 + s_2_1 + 1000 r_2_1_5 >= 2
- s_2_5 - s_2_1 - 1000 r_2_1_5 >= -1001
t_2_5 - t_2_1 + 1000.000000 u_2_1_5 - 0.000000 s_2_1  + 0.000000 s_2_8  + 0.000000 s_2_7  + 2000.000000 r_2_1_5 > 0.939756
s_1_5 + s_1_2 + 1000 r_1_2_5 >= 2
- s_1_5 - s_1_2 - 1000 r_1_2_5 >= -1001
t_1_5 - t_1_2 + 1000.000000 u_1_2_5 - 0.000000 s_1_2  + 0.000000 s_1_7  + 2000.000000 r_1_2_5 > 0.644236
s_2_5 + s_2_2 + 1000 r_2_2_5 >= 2
- s_2_5 - s_2_2 - 1000 r_2_2_5 >= -1001
t_2_5 - t_2_2 + 1000.000000 u_2_2_5 - 0.000000 s_2_2  + 0.000000 s_2_7  + 2000.000000 r_2_2_5 > 0.892944
s_1_5 + s_1_3 + 1000 r_1_3_5 >= 2
- s_1_5 - s_1_3 - 1000 r_1_3_5 >= -1001
t_1_5 - t_1_3 + 1000.000000 u_1_3_5 - 0.000000 s_1_3  + 0.000000 s_1_8  + 0.000000 s_1_7  + 2000.000000 r_1_3_5 > 0.049278
s_2_5 + s_2_3 + 1000 r_2_3_5 >= 2
- s_2_5 - s_2_3 - 1000 r_2_3_5 >= -1001
t_2_5 - t_2_3 + 1000.000000 u_2_3_5 - 0.000000 s_2_3  + 0.000000 s_2_8  + 0.000000 s_2_7  + 2000.000000 r_2_3_5 > 0.100897
s_1_5 + s_1_4 + 1000 r_1_4_5 >= 2
- s_1_5 - s_1_4 - 1000 r_1_4_5 >= -1001
t_1_5 - t_1_4 + 1000.000000 u_1_4_5 - 0.000000 s_1_4  + 0.000000 s_1_7  + 2000.000000 r_1_4_5 > 0.072400
s_2_5 + s_2_4 + 1000 r_2_4_5 >= 2
- s_2_5 - s_2_4 - 1000 r_2_4_5 >= -1001
t_2_5 - t_2_4 + 1000.000000 u_2_4_5 - 0.000000 s_2_4  + 0.000000 s_2_7  + 2000.000000 r_2_4_5 > 0.136245
t_1_6 - t_1_5 - 1000.000000 s_1_5  + 0.000000 s_1_8  > -999.705500
t_1_6 - t_2_5 - 1000.000000 s_2_5  + 0.000000 s_2_8  > -999.600837
t_2_6 - t_1_5 - 1000.000000 s_1_5  + 0.000000 s_1_8  > -999.705500
t_2_6 - t_2_5 - 1000.000000 s_2_5  + 0.000000 s_2_8  > -999.600837
s_1_5 + s_1_7 + 1000 r_1_5_7 >= 2
- s_1_5 - s_1_7 - 1000 r_1_5_7 >= -1001
t_1_5 - t_1_7 - 1000.000000 u_1_5_7 - 0.000000 s_1_7  + 2000.000000 r_1_5_7 > -999.485900
s_2_5 + s_2_7 + 1000 r_2_5_7 >= 2
- s_2_5 - s_2_7 - 1000 r_2_5_7 >= -1001
t_2_5 - t_2_7 - 1000.000000 u_2_5_7 - 0.000000 s_2_7  + 2000.000000 r_2_5_7 > -999.301789
t_1_5 - t_1_8 - 1000.000000 s_1_8  > -999.221589
t_1_5 - t_2_8 - 1000.000000 s_2_8  > -998.985100
t_2_5 - t_1_8 - 1000.000000 s_1_8  > -999.221589
t_2_5 - t_2_8 - 1000.000000 s_2_8  > -998.985100
t_1_6 - t_1_7 - 1000.000000 s_1_7  > -999.485900
t_1_6 - t_2_7 - 1000.000000 s_2_7  > -999.301789
t_2_6 - t_1_7 - 1000.000000 s_1_7  > -999.485900
t_2_6 - t_2_7 - 1000.000000 s_2_7  > -999.301789
s_1_7 + s_1_5 + 1000 r_1_5_7 >= 2
- s_1_7 - s_1_5 - 1000 r_1_5_7 >= -1001
t_1_7 - t_1_5 + 1000.000000 u_1_5_7 - 0.000000 s_1_5  + 0.000000 s_1_8  + 2000.000000 r_1_5_7 > 0.294500
s_2_7 + s_2_5 + 1000 r_2_5_7 >= 2
- s_2_7 - s_2_5 - 1000 r_2_5_7 >= -1001
t_2_7 - t_2_5 + 1000.000000 u_2_5_7 - 0.000000 s_2_5  + 0.000000 s_2_8  + 2000.000000 r_2_5_7 > 0.399163
s_1_7 + s_1_8 + 1000 r_1_7_8 >= 2
- s_1_7 - s_1_8 - 1000 r_1_7_8 >= -1001
t_1_7 - t_1_8 - 1000.000000 u_1_7_8 - 0.000000 s_1_8  + 2000.000000 r_1_7_8 > -999.221589
s_2_7 + s_2_8 + 1000 r_2_7_8 >= 2
- s_2_7 - s_2_8 - 1000 r_2_7_8 >= -1001
t_2_7 - t_2_8 - 1000.000000 u_2_7_8 - 0.000000 s_2_8  + 2000.000000 r_2_7_8 > -998.985100
s_1_8 + s_1_2 + 1000 r_1_2_8 >= 2
- s_1_8 - s_1_2 - 1000 r_1_2_8 >= -1001
t_1_8 - t_1_2 + 1000.000000 u_1_2_8 - 0.000000 s_1_2  + 0.000000 s_1_7  + 2000.000000 r_1_2_8 > 0.644236
s_2_8 + s_2_2 + 1000 r_2_2_8 >= 2
- s_2_8 - s_2_2 - 1000 r_2_2_8 >= -1001
t_2_8 - t_2_2 + 1000.000000 u_2_2_8 - 0.000000 s_2_2  + 0.000000 s_2_7  + 2000.000000 r_2_2_8 > 0.892944
s_1_8 + s_1_4 + 1000 r_1_4_8 >= 2
- s_1_8 - s_1_4 - 1000 r_1_4_8 >= -1001
t_1_8 - t_1_4 + 1000.000000 u_1_4_8 - 0.000000 s_1_4  + 0.000000 s_1_7  + 2000.000000 r_1_4_8 > 0.072400
s_2_8 + s_2_4 + 1000 r_2_4_8 >= 2
- s_2_8 - s_2_4 - 1000 r_2_4_8 >= -1001
t_2_8 - t_2_4 + 1000.000000 u_2_4_8 - 0.000000 s_2_4  + 0.000000 s_2_7  + 2000.000000 r_2_4_8 > 0.136245
s_1_8 + s_1_7 + 1000 r_1_7_8 >= 2
- s_1_8 - s_1_7 - 1000 r_1_7_8 >= -1001
t_1_8 - t_1_7 + 1000.000000 u_1_7_8 - 0.000000 s_1_7  + 2000.000000 r_1_7_8 > 0.514100
s_2_8 + s_2_7 + 1000 r_2_7_8 >= 2
- s_2_8 - s_2_7 - 1000 r_2_7_8 >= -1001
t_2_8 - t_2_7 + 1000.000000 u_2_7_8 - 0.000000 s_2_7  + 2000.000000 r_2_7_8 > 0.698211
Binary
s_1_1
s_2_1
s_1_2
s_2_2
s_1_3
s_2_3
s_1_4
s_2_4
s_1_5
s_2_5
s_1_6
s_2_6
s_1_7
s_2_7
s_1_8
s_2_8
u_1_1_2
r_1_1_2
u_2_1_2
r_2_1_2
u_1_1_3
r_1_1_3
u_2_1_3
r_2_1_3
u_1_1_4
r_1_1_4
u_2_1_4
r_2_1_4
u_1_1_5
r_1_1_5
u_2_1_5
r_2_1_5
u_1_2_3
r_1_2_3
u_2_2_3
r_2_2_3
u_1_2_4
r_1_2_4
u_2_2_4
r_2_2_4
u_1_2_5
r_1_2_5
u_2_2_5
r_2_2_5
u_1_2_8
r_1_2_8
u_2_2_8
r_2_2_8
u_1_3_4
r_1_3_4
u_2_3_4
r_2_3_4
u_1_3_5
r_1_3_5
u_2_3_5
r_2_3_5
u_1_4_5
r_1_4_5
u_2_4_5
r_2_4_5
u_1_4_8
r_1_4_8
u_2_4_8
r_2_4_8
u_1_5_7
r_1_5_7
u_2_5_7
r_2_5_7
u_1_7_8
r_1_7_8
u_2_7_8
r_2_7_8

End
